20755.9
20755.9
20697.6
20697.6
19608.9
19608.9
19608.9
19608.9
19608.9
19358.9
19358.9
19358.9
19358.9
19358.9
19358.9
19060.8
19060.8
19060.8
19060.8
19060.8
19060.8
19060.8
19060.8
19060.8
19051
19035.9
18767
18767
18687.9
18667.4
18667.4
18667.4
18667.4
18667.4
18517.7
18517.7
18517.7
18507.5
18262.7
18235.7
18235.7
17617.2
17617.2
17617.2
17617.2
17617.2
17617.2
17617.2
17617.2
17617.2
17617.2
17617.2
17617.2
17617.2
17617.2
17617.2
17617.2
17617.2
17617.2
17617.2
17617.2
17617.2
17617.2
17617.2
17617.2
17612.8
17612.8
17417.9
17400.8
17104.7
17104.7
17104.7
17003.9
17003.9
17003.9
17003.9
17003.9
17003.9
16931.4
16931.4
16931.4
16844.5
16844.5
16844.5
16844.5
16781.7
16781.7
16406.8
16406.8
16406.8
16406.8
16406.8
16406.8
16406.8
16406.8
16406.8
16406.8
16406.8
16406.8
16406.8
